c turning on binary mode checking
c parsing input formula with 259840 variables and 1039929 clauses
c finished parsing, read 2959650 bytes from proof file
c detected empty clause; start verification via backward checking
c 3031 of 1039929 clauses in core                            
c 962 of 119890 lemmas in core using 20379 resolution steps
c 0 RAT lemmas in core; 61 redundant literals in core lemmas
s VERIFIED
c verification time: 1.217 seconds
